param n := 120;
param c := 1000;
param : V : p w :=
   0	 468	 458
   1	 262	 252
   2	 300	 290
   3	 507	 497
   4	 260	 250
   5	 263	 253
   6	 456	 446
   7	 286	 276
   8	 288	 278
   9	 397	 387
  10	 284	 274
  11	 349	 339
  12	 472	 462
  13	 278	 268
  14	 280	 270
  15	 482	 472
  16	 268	 258
  17	 280	 270
  18	 387	 377
  19	 286	 276
  20	 357	 347
  21	 494	 484
  22	 263	 253
  23	 273	 263
  24	 500	 490
  25	 262	 252
  26	 268	 258
  27	 424	 414
  28	 260	 250
  29	 346	 336
  30	 503	 493
  31	 263	 253
  32	 264	 254
  33	 480	 470
  34	 267	 257
  35	 283	 273
  36	 413	 403
  37	 272	 262
  38	 345	 335
  39	 443	 433
  40	 283	 273
  41	 304	 294
  42	 385	 375
  43	 286	 276
  44	 359	 349
  45	 432	 422
  46	 286	 276
  47	 312	 302
  48	 456	 446
  49	 284	 274
  50	 290	 280
  51	 362	 352
  52	 328	 318
  53	 340	 330
  54	 412	 402
  55	 279	 269
  56	 339	 329
  57	 446	 436
  58	 264	 254
  59	 320	 310
  60	 367	 357
  61	 278	 268
  62	 385	 375
  63	 420	 410
  64	 272	 262
  65	 338	 328
  66	 362	 352
  67	 285	 275
  68	 383	 373
  69	 433	 423
  70	 272	 262
  71	 325	 315
  72	 436	 426
  73	 276	 266
  74	 318	 308
  75	 398	 388
  76	 261	 251
  77	 371	 361
  78	 396	 386
  79	 282	 272
  80	 352	 342
  81	 384	 374
  82	 264	 254
  83	 382	 372
  84	 418	 408
  85	 297	 287
  86	 315	 305
  87	 452	 442
  88	 262	 252
  89	 316	 306
  90	 374	 364
  91	 312	 302
  92	 344	 334
  93	 373	 363
  94	 275	 265
  95	 382	 372
  96	 406	 396
  97	 302	 292
  98	 322	 312
  99	 495	 485
 100	 265	 255
 101	 270	 260
 102	 446	 436
 103	 266	 256
 104	 318	 308
 105	 455	 445
 106	 280	 270
 107	 295	 285
 108	 429	 419
 109	 285	 275
 110	 316	 306
 111	 437	 427
 112	 260	 250
 113	 333	 323
 114	 500	 490
 115	 262	 252
 116	 268	 258
 117	 506	 496
 118	 260	 250
 119	 264	 254
;

set E :=
   0	  15
   0	  41
   0	  42
   0	  48
   0	  59
   0	  61
   0	  77
   0	  80
   0	  97
   0	 105
   0	 109
   0	 113
   1	   5
   1	  11
   1	  12
   1	  14
   1	  56
   1	  58
   1	  65
   1	  75
   1	  77
   1	  88
   1	 111
   1	 117
   2	   3
   2	  12
   2	  14
   2	  15
   2	  26
   2	  54
   2	  59
   2	  63
   2	  71
   2	  94
   2	 110
   3	   6
   3	  28
   3	  40
   3	  45
   3	  49
   3	  59
   3	  64
   3	  68
   3	  69
   3	  84
   3	  92
   3	 110
   4	   7
   4	  11
   4	  36
   4	  61
   4	  64
   4	  99
   4	 102
   5	  13
   5	  22
   5	  27
   5	  40
   5	  51
   5	  54
   5	  58
   5	  64
   5	  65
   5	  70
   5	 109
   5	 110
   6	  12
   6	  46
   6	  48
   6	  55
   6	  65
   6	  68
   6	  71
   6	  80
   6	  86
   6	  92
   6	  99
   6	 102
   6	 111
   7	  24
   7	  31
   7	  33
   7	  44
   7	  59
   7	  65
   7	  69
   7	  70
   7	  87
   7	  98
   7	 109
   7	 115
   8	  13
   8	  16
   8	  23
   8	  27
   8	  47
   8	  80
   8	  92
   8	  96
   8	  98
   8	 101
   8	 105
   8	 109
   8	 113
   9	  18
   9	  19
   9	  20
   9	  60
   9	  76
   9	  77
   9	  78
   9	  93
   9	 107
   9	 119
  10	  22
  10	  24
  10	  35
  10	  37
  10	  38
  10	  53
  10	  78
  10	  98
  10	 101
  10	 114
  11	  13
  11	  26
  11	  29
  11	  60
  11	  86
  11	  94
  11	  99
  11	 108
  12	  31
  12	  39
  12	  59
  12	  64
  12	  76
  12	  79
  12	 100
  13	  16
  13	  31
  13	  50
  13	  61
  13	  73
  13	  87
  13	  88
  13	  90
  13	 100
  13	 110
  14	  30
  14	  41
  14	  65
  14	  72
  14	  80
  14	 105
  14	 112
  14	 113
  14	 117
  15	  56
  15	 105
  15	 118
  15	 119
  16	  37
  16	  43
  16	  49
  16	  61
  16	  73
  16	  77
  16	  80
  16	  94
  16	 100
  16	 117
  17	  24
  17	  64
  17	  67
  17	  82
  17	 102
  17	 104
  18	  23
  18	  40
  18	  89
  18	  95
  18	  98
  19	  22
  19	  44
  19	  60
  19	  80
  19	  99
  19	 110
  20	  26
  20	  39
  20	  67
  20	  85
  20	  97
  20	 108
  21	  29
  21	  68
  21	  76
  21	  93
  21	 106
  21	 119
  22	  42
  22	  49
  22	  61
  22	  63
  22	  65
  22	  80
  22	  93
  23	  27
  23	  35
  23	  46
  23	  56
  23	  77
  23	  80
  23	  87
  23	 117
  24	  38
  24	  44
  24	  49
  24	  51
  24	  56
  24	  73
  24	  78
  24	  82
  24	  86
  24	  96
  24	  98
  24	 104
  24	 108
  24	 114
  24	 115
  24	 119
  25	  28
  25	  29
  25	  30
  25	  33
  25	  52
  25	  53
  25	  57
  25	  79
  25	 115
  25	 117
  26	  75
  26	  76
  26	  78
  26	  84
  26	  85
  26	  97
  26	  98
  26	 108
  26	 111
  27	  29
  27	  56
  27	  62
  27	  66
  27	  69
  27	  79
  27	  81
  27	  89
  27	  96
  27	 103
  28	  42
  28	  52
  28	  82
  28	  83
  28	  96
  28	 108
  28	 119
  29	  41
  29	  44
  29	  57
  29	  64
  29	  80
  29	  99
  29	 104
  30	  31
  30	  32
  30	  33
  30	  37
  30	  41
  30	  46
  30	  47
  30	  55
  30	  64
  30	  69
  30	  71
  30	  76
  30	  83
  31	  33
  31	  49
  31	  56
  31	  72
  31	  76
  31	  90
  32	  40
  32	  45
  32	  49
  32	  50
  32	  53
  32	  94
  32	 113
  32	 116
  32	 117
  33	  34
  33	  40
  33	  45
  33	  51
  33	  58
  33	  59
  33	  75
  33	  78
  33	 102
  33	 106
  33	 114
  34	  35
  34	  45
  34	  79
  35	  66
  35	  80
  35	  91
  35	  95
  35	  97
  35	 101
  35	 106
  36	  40
  36	  42
  36	  46
  36	  52
  36	  53
  36	  54
  36	  55
  36	  64
  36	  73
  36	  74
  36	  80
  36	  99
  36	 105
  36	 107
  36	 108
  36	 110
  36	 112
  36	 115
  37	  38
  37	  40
  37	  62
  37	  63
  37	  80
  37	  93
  37	 109
  37	 111
  38	  43
  38	  56
  38	  65
  38	  69
  38	  75
  38	  83
  38	  93
  38	  98
  38	 104
  38	 106
  39	  40
  39	  49
  39	  51
  39	  53
  39	  55
  39	  59
  39	  61
  39	  75
  39	  76
  39	  77
  39	  92
  39	  96
  39	  99
  40	  61
  40	  62
  40	  65
  40	  67
  40	  76
  40	  87
  40	  95
  40	  97
  40	 103
  40	 109
  40	 112
  41	  44
  41	  55
  41	  62
  41	  73
  41	  79
  41	  82
  41	  87
  41	  94
  41	  96
  41	  99
  41	 105
  41	 108
  42	  45
  42	  46
  42	  49
  42	  57
  42	  72
  42	  81
  42	  84
  42	  85
  42	  95
  42	 103
  42	 110
  42	 111
  42	 113
  43	  46
  43	  50
  43	  53
  43	  80
  43	  91
  43	  92
  43	 105
  43	 110
  43	 112
  43	 115
  43	 116
  44	  49
  44	  55
  44	  60
  44	  78
  44	  79
  44	  92
  44	 110
  44	 111
  44	 114
  45	  65
  45	  66
  45	  72
  45	  78
  45	  81
  45	 104
  45	 109
  45	 114
  45	 117
  46	  49
  46	  72
  46	  73
  46	  87
  46	 104
  46	 113
  47	  48
  47	  51
  47	  58
  47	  63
  47	  64
  47	  72
  47	  87
  47	  94
  47	  97
  47	 100
  47	 108
  47	 113
  47	 114
  48	  54
  48	  65
  48	  72
  48	  75
  48	  78
  48	  96
  48	  98
  48	 105
  49	  92
  49	 109
  49	 115
  50	  62
  50	  74
  50	  95
  50	 106
  51	  75
  51	  81
  51	  87
  51	  95
  51	  99
  51	 106
  52	  86
  52	  88
  52	 102
  52	 111
  52	 112
  52	 115
  53	  70
  53	  75
  53	  78
  53	  82
  53	 103
  53	 105
  53	 111
  54	  61
  54	  63
  54	  68
  54	  69
  54	  72
  54	  78
  54	  90
  54	  97
  54	 110
  55	  73
  55	  79
  55	  93
  55	  95
  55	  96
  55	 118
  56	  80
  56	  90
  56	 104
  56	 113
  56	 116
  56	 119
  57	  59
  57	  62
  57	  63
  57	  68
  57	  70
  57	  85
  57	  95
  57	 112
  57	 113
  58	  77
  58	  96
  59	  75
  59	  99
  59	 105
  59	 111
  59	 113
  60	  67
  60	  80
  60	  87
  60	  90
  60	 104
  60	 109
  60	 111
  62	  65
  62	  79
  62	  85
  62	 116
  63	  70
  63	  83
  63	  90
  63	  91
  64	  73
  64	  77
  64	  78
  64	  87
  64	  88
  64	  89
  64	  92
  64	 112
  64	 114
  64	 117
  64	 119
  65	  85
  65	  86
  65	  87
  65	  91
  66	  99
  66	 116
  67	  69
  67	  70
  67	  73
  67	  74
  67	  77
  67	  84
  67	  92
  67	  95
  67	  97
  67	 108
  67	 109
  67	 111
  68	  70
  68	  83
  68	  88
  68	  94
  68	 114
  68	 116
  69	  71
  69	  73
  69	  80
  69	  83
  69	  93
  69	 104
  70	  72
  70	  75
  70	  78
  70	  95
  70	 114
  70	 119
  71	  73
  71	  84
  71	  90
  71	  96
  71	 101
  71	 108
  72	  87
  72	  89
  72	  90
  72	  97
  72	 117
  73	  82
  73	 101
  73	 106
  73	 110
  73	 116
  73	 118
  74	  78
  74	  97
  74	 108
  75	 118
  76	  77
  76	  91
  76	  93
  76	  94
  76	  98
  76	 111
  76	 118
  77	  86
  77	  90
  77	  94
  78	  79
  78	  84
  78	  87
  78	 106
  78	 109
  78	 110
  79	  92
  79	  93
  79	  97
  79	  98
  79	 115
  79	 117
  79	 118
  80	  94
  80	 103
  80	 105
  81	  83
  81	  94
  81	 112
  81	 114
  81	 116
  82	  83
  82	 109
  82	 115
  83	  88
  83	  95
  83	 101
  84	 100
  85	  91
  85	  96
  85	 102
  85	 109
  85	 115
  86	 110
  87	  88
  87	  90
  87	  94
  87	  95
  87	 101
  87	 107
  87	 113
  87	 114
  87	 117
  88	 102
  88	 110
  88	 112
  88	 115
  88	 117
  88	 119
  89	 112
  89	 115
  90	  98
  90	 109
  90	 119
  91	  94
  91	  98
  91	  99
  91	 100
  91	 105
  92	 111
  93	 102
  93	 117
  94	  96
  94	 110
  94	 115
  94	 118
  95	 100
  95	 114
  95	 115
  96	 103
  96	 105
  96	 115
  97	 103
  98	 105
  99	 104
  99	 107
  99	 110
  99	 111
  99	 114
  99	 118
 100	 114
 101	 102
 101	 109
 102	 103
 102	 108
 102	 115
 103	 105
 103	 106
 103	 109
 104	 105
 104	 111
 105	 112
 106	 115
 108	 116
 108	 117
 109	 112
 110	 113
 114	 116
 116	 117
;
